words_hard_train/5602.qaiger
aag 96 16 0 1 80
2
4
8
12
16
20
50
54
68
88
92
102
134
142
168
176
193
6 3 4
10 6 9
14 10 13
18 14 17
22 19 20
24 15 16
26 19 25
28 2 5
30 29 7
32 30 9
34 32 13
36 26 34
38 22 37
40 17 21
42 14 40
44 36 21
46 43 45
48 39 46
52 49 51
56 43 54
58 42 55
60 57 59
62 61 45
64 60 44
66 63 65
70 67 69
72 53 71
74 37 4
76 27 35
78 74 77
80 48 50
82 79 81
84 16 5
86 85 35
90 31 89
94 91 92
96 95 33
98 11 12
100 99 15
104 100 102
106 96 105
108 90 93
110 7 8
112 109 111
114 112 11
116 106 115
118 86 117
120 101 103
122 118 121
124 82 123
126 72 125
128 66 68
130 127 129
132 65 59
136 133 135
138 132 134
140 137 139
144 141 143
146 131 145
148 140 142
150 147 149
152 64 135
154 151 152
156 135 4
158 156 55
160 40 158
162 3 13
164 162 9
166 160 164
170 166 169
172 167 168
174 171 173
178 175 177
180 154 178
182 155 179
184 150 153
186 174 176
188 185 187
190 182 189
192 181 191
i0 2 y1[0]
i1 1 x1[3]
i2 2 y1[1]
i3 2 y1[2]
i4 2 y1[3]
i5 2 y1[4]
i6 1 x1[4]
i7 2 y1[5]
i8 1 x1[5]
i9 1 x1[0]
i10 1 x1[1]
i11 1 x1[2]
i12 2 y1[6]
i13 1 x1[6]
i14 2 y1[7]
i15 1 x1[7]
o0 bv[0]
c
simplified
  >
    subtract
      2 y1
      and
        >> 3
          1 x1
        1
    1 x1
