words_hard_train/5602.qaiger.qdimacs
p cnf 96 241
a 2 34 71 44 46 51 88 25 0
e 1 3 4 5 6 7 8 9 10 11 12 13 14 15 16 17 18 19 20 21 22 23 24 26 27 28 29 30 31 32 33 35 36 37 38 39 40 41 42 43 45 47 48 49 50 52 53 54 55 56 57 58 59 60 61 62 63 64 65 66 67 68 69 70 72 73 74 75 76 77 78 79 80 81 82 83 84 85 86 87 89 90 91 92 93 94 95 96 0
1 -2 3 0
-1 -3 0
2 -3 0
-3 4 5 0
3 -5 0
-4 -5 0
-5 6 7 0
5 -7 0
-6 -7 0
-7 8 9 0
7 -9 0
-8 -9 0
9 -10 11 0
-9 -11 0
10 -11 0
7 -8 12 0
-7 -12 0
8 -12 0
9 12 13 0
-9 -13 0
-12 -13 0
-1 2 14 0
1 -14 0
-2 -14 0
14 3 15 0
-14 -15 0
-3 -15 0
-15 4 16 0
15 -16 0
-4 -16 0
-16 6 17 0
16 -17 0
-6 -17 0
-13 -17 18 0
13 -18 0
17 -18 0
-11 18 19 0
11 -19 0
-18 -19 0
8 10 20 0
-8 -20 0
-10 -20 0
-7 -20 21 0
7 -21 0
20 -21 0
-18 10 22 0
18 -22 0
-10 -22 0
21 22 23 0
-21 -23 0
-22 -23 0
19 -23 24 0
-19 -24 0
23 -24 0
24 25 26 0
-24 -26 0
-25 -26 0
21 -27 28 0
-21 -28 0
27 -28 0
-21 27 29 0
21 -29 0
-27 -29 0
28 29 30 0
-28 -30 0
-29 -30 0
30 22 31 0
-30 -31 0
-22 -31 0
-30 -22 32 0
30 -32 0
22 -32 0
31 32 33 0
-31 -33 0
-32 -33 0
33 34 35 0
-33 -35 0
-34 -35 0
26 35 36 0
-26 -36 0
-35 -36 0
18 -2 37 0
-18 -37 0
2 -37 0
13 17 38 0
-13 -38 0
-17 -38 0
-37 38 39 0
37 -39 0
-38 -39 0
-24 -25 40 0
24 -40 0
25 -40 0
39 40 41 0
-39 -41 0
-40 -41 0
-8 2 42 0
8 -42 0
-2 -42 0
42 17 43 0
-42 -43 0
-17 -43 0
15 44 45 0
-15 -45 0
-44 -45 0
45 -46 47 0
-45 -47 0
46 -47 0
47 16 48 0
-47 -48 0
-16 -48 0
5 -6 49 0
-5 -49 0
6 -49 0
49 7 50 0
-49 -50 0
-7 -50 0
-50 -51 52 0
50 -52 0
51 -52 0
-48 52 53 0
48 -53 0
-52 -53 0
-45 46 54 0
45 -54 0
-46 -54 0
3 -4 55 0
-3 -55 0
4 -55 0
54 55 56 0
-54 -56 0
-55 -56 0
-56 5 57 0
56 -57 0
-5 -57 0
-53 57 58 0
53 -58 0
-57 -58 0
-43 58 59 0
43 -59 0
-58 -59 0
50 51 60 0
-50 -60 0
-51 -60 0
-59 60 61 0
59 -61 0
-60 -61 0
-41 61 62 0
41 -62 0
-61 -62 0
-36 62 63 0
36 -63 0
-62 -63 0
-33 -34 64 0
33 -64 0
34 -64 0
63 64 65 0
-63 -65 0
-64 -65 0
32 29 66 0
-32 -66 0
-29 -66 0
66 67 68 0
-66 -68 0
-67 -68 0
-66 -67 69 0
66 -69 0
67 -69 0
68 69 70 0
-68 -70 0
-69 -70 0
70 71 72 0
-70 -72 0
-71 -72 0
65 72 73 0
-65 -73 0
-72 -73 0
-70 -71 74 0
70 -74 0
71 -74 0
73 74 75 0
-73 -75 0
-74 -75 0
-32 67 76 0
32 -76 0
-67 -76 0
75 -76 77 0
-75 -77 0
76 -77 0
67 -2 78 0
-67 -78 0
2 -78 0
-78 27 79 0
78 -79 0
-27 -79 0
-20 -79 80 0
20 -80 0
79 -80 0
1 6 81 0
-1 -81 0
-6 -81 0
-81 4 82 0
81 -82 0
-4 -82 0
-80 -82 83 0
80 -83 0
82 -83 0
-83 84 85 0
83 -85 0
-84 -85 0
83 -84 86 0
-83 -86 0
84 -86 0
85 86 87 0
-85 -87 0
-86 -87 0
87 88 89 0
-87 -89 0
-88 -89 0
-77 -89 90 0
77 -90 0
89 -90 0
77 89 91 0
-77 -91 0
-89 -91 0
-75 76 92 0
75 -92 0
-76 -92 0
-87 -88 93 0
87 -93 0
88 -93 0
92 93 94 0
-92 -94 0
-93 -94 0
-91 94 95 0
91 -95 0
-94 -95 0
90 95 96 0
-90 -96 0
-95 -96 0
-96 0
